[2026-03-24T00:33:39.461Z] Pipeline "set_set_set_s004_g009" → 2026_03_24_00_33_39_set_set_set_s004_g009_max.sol
Set parameter WLSAccessID
Set parameter WLSSecret
Set parameter LicenseID to value 2792458
Set parameter LogFile to value "gurobi.log"
Using license file /root/gurobi.lic
Academic license 2792458 - for non-commercial use only - registered to an___@studenti.unipg.it

Gurobi Optimizer version 13.0.1 build v13.0.1rc0 (linux64 - "Ubuntu 24.04.4 LTS")
Copyright (c) 2026, Gurobi Optimization, LLC

Warning: Duplicate section found (read 'binary') - Is a variable name equal to an LP file format keyword?
Warning: Duplicate section found (read 'binary') - Is a variable name equal to an LP file format keyword?
Warning: Duplicate section found (read 'binary') - Is a variable name equal to an LP file format keyword?
Warning: Duplicate section found (read 'binary') - Is a variable name equal to an LP file format keyword?
Warning: Duplicate section found (read 'binary') - Is a variable name equal to an LP file format keyword?
Warning: Duplicate section found (read 'binary') - Is a variable name equal to an LP file format keyword?
Warning: Duplicate section found (read 'binary') - Is a variable name equal to an LP file format keyword?
Warning: Duplicate section found (read 'binary') - Is a variable name equal to an LP file format keyword?
Warning: Duplicate section found (read 'binary') - Is a variable name equal to an LP file format keyword?
Warning: Duplicate section found (read 'binary') - Is a variable name equal to an LP file format keyword?
Warning: Further warnings of this type will be omitted.
Read LP format model from file /root/bgw/data/uploads/2026_03_24_00_33_39_set_set_set_s004_g009_max.lp
Reading time = 0.00 seconds
: 326 rows, 75 columns, 907 nonzeros

Using Gurobi shared library /opt/gurobi1301/linux64/lib/libgurobi.so.13.0.1

CPU model: AMD EPYC-Genoa Processor, instruction set [SSE2|AVX|AVX2|AVX512]
Thread count: 16 physical cores, 16 logical processors, using up to 16 threads

Academic license 2792458 - for non-commercial use only - registered to an___@studenti.unipg.it
Optimize a model with 326 rows, 75 columns and 907 nonzeros (Max)
Model fingerprint: 0xd88b797c
Model has 9 linear objective coefficients
Variable types: 18 continuous, 57 integer (57 binary)
Coefficient statistics:
  Matrix range     [1e+00, 1e+01]
  Objective range  [1e+00, 1e+00]
  Bounds range     [1e+00, 1e+00]
  RHS range        [1e+00, 1e+01]

Found heuristic solution: objective 9.0000000
Presolve removed 135 rows and 25 columns
Presolve time: 0.00s
Presolved: 191 rows, 50 columns, 603 nonzeros
Variable types: 0 continuous, 50 integer (45 binary)
Found heuristic solution: objective 12.0000000

Root relaxation: objective 4.200000e+01, 30 iterations, 0.00 seconds (0.00 work units)

    Nodes    |    Current Node    |     Objective Bounds      |     Work
 Expl Unexpl |  Obj  Depth IntInf | Incumbent    BestBd   Gap | It/Node Time

     0     0   42.00000    0   14   12.00000   42.00000   250%     -    0s
H    0     0                      23.0000000   42.00000  82.6%     -    0s
H    0     0                      25.0000000   42.00000  68.0%     -    0s
     0     0   42.00000    0   13   25.00000   42.00000  68.0%     -    0s
     0     0   42.00000    0   14   25.00000   42.00000  68.0%     -    0s
     0     0   42.00000    0   14   25.00000   42.00000  68.0%     -    0s
     0     0   40.00000    0   13   25.00000   40.00000  60.0%     -    0s
     0     0   40.00000    0   13   25.00000   40.00000  60.0%     -    0s
     0     0   39.00000    0   15   25.00000   39.00000  56.0%     -    0s
     0     0   39.00000    0   15   25.00000   39.00000  56.0%     -    0s
     0     0   39.00000    0   14   25.00000   39.00000  56.0%     -    0s
     0     0   38.14286    0   14   25.00000   38.14286  52.6%     -    0s
     0     0   37.85714    0   14   25.00000   37.85714  51.4%     -    0s
     0     0   37.85714    0    7   25.00000   37.85714  51.4%     -    0s
     0     0   36.85714    0   14   25.00000   36.85714  47.4%     -    0s
     0     0   36.85714    0   14   25.00000   36.85714  47.4%     -    0s
     0     0   36.14286    0   14   25.00000   36.14286  44.6%     -    0s
     0     0   36.14286    0   14   25.00000   36.14286  44.6%     -    0s
     0     2   36.14286    0   14   25.00000   36.14286  44.6%     -    0s

Cutting planes:
  Gomory: 8
  Lift-and-project: 1
  Cover: 1
  MIR: 1
  Inf proof: 2
  Zero half: 3

Explored 316 nodes (2897 simplex iterations) in 0.08 seconds (0.03 work units)
Thread count was 16 (of 16 available processors)

Solution count 4: 25 23 12 9 

Optimal solution found (tolerance 1.00e-04)
Best objective 2.500000000000e+01, best bound 2.500000000000e+01, gap 0.0000%

Wrote result file '/root/bgw/data/results/2026_03_24_00_33_39_set_set_set_s004_g009_max.sol'

